# Objective value = 1.3554150000000003e+04
I_0_0 2390
I_0_1 3.2320000000000009e+03
I_0_2 2.8250000000000009e+03
I_0_3 3.1770000000000005e+03
I_0_4 3.0040000000000009e+03
I_0_5 2.6590000000000105e+03
I_0_6 3.5659999999999959e+03
I_1_0 196
I_1_1 98
I_1_2 196
I_1_3 9.8000000000000014e+01
I_1_4 0
I_1_5 196
I_1_6 98
I_2_0 114
I_2_1 57
I_2_2 114
I_2_3 5.7000000000000007e+01
I_2_4 1.7763568394002505e-15
I_2_5 114
I_2_6 5.6999999999999993e+01
I_3_0 55
I_3_1 0
I_3_2 55
I_3_3 0
I_3_4 55
I_3_5 5.4999999999999218e+01
I_3_6 7.3580030957032250e-13
I_4_0 38
I_4_1 -1.1338152638984411e-13
I_4_2 38.0000000000001
I_4_3 -1.1338152638984411e-13
I_4_4 38.0000000000001
I_4_5 3.7999999999999744e+01
I_4_6 2.5893176491820213e-13
I_5_0 94
I_5_1 47
I_5_2 9.3999999999999986e+01
I_5_3 4.6999999999999794e+01
I_5_4 -1.5276668818842154e-13
I_5_5 9.3999999999999872e+01
I_5_6 4.6999999999999915e+01
I_6_0 30
I_6_1 0
I_6_2 2.9999999999999936e+01
I_6_3 6.5364380574806091e-14
I_6_4 2.9999999999999936e+01
I_6_5 2.9999999999999979e+01
I_6_6 2.0816681711721685e-14
I_7_0 86
I_7_1 8.9511731360403246e-15
I_7_2 86
I_7_3 8.9511731360403246e-15
I_7_4 86
I_7_5 86
I_7_6 0
I_8_0 22
I_8_1 1.0999999999999977e+01
I_8_2 2.1999999999999972e+01
I_8_3 1.0999999999999968e+01
I_8_4 7.1054273576010019e-15
I_8_5 2.2000000000000007e+01
I_8_6 1.1000000000000036e+01
I_9_0 180
I_9_1 90
I_9_2 0
I_9_3 180
I_9_4 180
I_9_5 9.0000000000000540e+01
I_9_6 5.1869619710487314e-13
I_10_0 44
I_10_1 0
I_10_2 4.4000000000000107e+01
I_10_3 -1.1479706074624119e-13
I_10_4 4.4000000000000107e+01
I_10_5 43.9999999999999
I_10_6 9.5257135512838431e-14
I_11_0 188
I_11_1 93.9999999999998
I_11_2 1.8800000000000011e+02
I_11_3 9.4000000000000114e+01
I_11_4 1.3500311979441904e-13
I_11_5 1.8799999999999076e+02
I_11_6 9.3999999999999972e+01
I_12_0 38
I_12_1 1.8999999999999996e+01
I_12_2 3.7999999999999993e+01
I_12_3 1.8999999999999993e+01
I_12_4 38
I_12_5 1.8999999999999993e+01
I_12_6 -3.5527136788005009e-15
I_13_0 78
I_13_1 0
I_13_2 78
I_13_3 0
I_13_4 78
I_13_5 7.7999999999999190e+01
I_13_6 7.9886097736903139e-13
I_14_0 130
I_14_1 130
I_14_2 65
I_14_3 0
I_14_4 1.3000000000000003e+02
I_14_5 6.4999999999998849e+01
I_14_6 -5.1159076974727213e-13
I_15_0 190
I_15_1 95
I_15_2 -2.2737367544323206e-13
I_15_3 1.9000000000000009e+02
I_15_4 1.8999999999999918e+02
I_15_5 9.5000000000000739e+01
I_15_6 7.4606987254810520e-13
q_1_0 0
q_1_1 196
q_1_2 0
q_1_3 0
q_1_4 294
q_1_5 0
q_2_0 0
q_2_1 114
q_2_2 0
q_2_3 0
q_2_4 171
q_2_5 -3.5527136788005009e-15
q_3_0 0
q_3_1 110
q_3_2 0
q_3_3 110
q_3_4 5.4999999999999218e+01
q_3_5 1.5173973189064327e-12
q_4_0 -1.1338152638984411e-13
q_4_1 7.6000000000000213e+01
q_4_2 -2.1285750939625814e-13
q_4_3 7.6000000000000213e+01
q_4_4 3.7999999999999645e+01
q_4_5 5.1472714979183820e-13
q_5_0 0
q_5_1 94
q_5_2 -1.8829382497642655e-13
q_5_3 7.3385741927722847e-14
q_5_4 1.4100000000000006e+02
q_5_5 0
q_6_0 0
q_6_1 5.9999999999999936e+01
q_6_2 1.2931322679321511e-13
q_6_3 5.9999999999999872e+01
q_6_4 3.0000000000000043e+01
q_6_5 4.2132963784524691e-14
q_7_0 8.9511731360403246e-15
q_7_1 172
q_7_2 8.9511731360403246e-15
q_7_3 172
q_7_4 86
q_7_5 0
q_8_0 -2.2593038551121936e-14
q_8_1 22
q_8_2 -1.7763568394002505e-15
q_8_3 3.2862601528904634e-14
q_8_4 33
q_8_5 1.4210854715202004e-14
q_9_0 0
q_9_1 0
q_9_2 270
q_9_3 8.9999999999999829e+01
q_9_4 7.7449158197850920e-13
q_9_5 0
q_10_0 0
q_10_1 8.8000000000000114e+01
q_10_2 -2.2137847111025621e-13
q_10_3 8.8000000000000227e+01
q_10_4 4.3999999999999794e+01
q_10_5 1.9473311851925246e-13
q_11_0 -1.9828583219805296e-13
q_11_1 1.8800000000000034e+02
q_11_2 0
q_11_3 2.8421709430404007e-14
q_11_4 2.8199999999999045e+02
q_11_5 8.9244167611468583e-12
q_12_0 -5.1417203827952562e-15
q_12_1 38
q_12_2 0
q_12_3 3.8000000000000014e+01
q_12_4 -8.8817841970012523e-16
q_12_5 0
q_13_0 0
q_13_1 156
q_13_2 0
q_13_3 156
q_13_4 7.7999999999999190e+01
q_13_5 1.6088796961355456e-12
q_14_0 65
q_14_1 0
q_14_2 0
q_14_3 195
q_14_4 -7.0343730840249918e-13
q_14_5 6.2705396430828841e-13
q_15_0 0
q_15_1 -1.7852386235972517e-13
q_15_2 2.8500000000000034e+02
q_15_3 9.4999999999999133e+01
q_15_4 1.3784529073745944e-12
q_15_5 0
y_0_0 1
y_0_1 1
y_0_2 1
y_0_3 1
y_0_4 1
y_0_5 1.0075273948473296e-14
y_1_0 0
y_1_1 1
y_1_2 0
y_1_3 0
y_1_4 1
y_1_5 0
y_2_0 0
y_2_1 1
y_2_2 0
y_2_3 0
y_2_4 1
y_2_5 0
y_3_0 0
y_3_1 1
y_3_2 0
y_3_3 1
y_3_4 9.9999999999998579e-01
y_3_5 1.3378187446733136e-14
y_4_0 -2.9837243786801082e-15
y_4_1 1.0000000000000027e+00
y_4_2 -2.9837243786801082e-15
y_4_3 1.0000000000000027e+00
y_4_4 9.9999999999999323e-01
y_4_5 6.8139938136368983e-15
y_5_0 0
y_5_1 1
y_5_2 -2.1441182163073336e-15
y_5_3 0
y_5_4 1
y_5_5 0
y_6_0 0
y_6_1 9.9999999999999789e-01
y_6_2 2.1788126858268697e-15
y_6_3 9.9999999999999789e-01
y_6_4 9.9999999999999933e-01
y_6_5 6.9388939039072284e-16
y_7_0 1.0408340855860843e-16
y_7_1 1
y_7_2 1.0408340855860843e-16
y_7_3 1
y_7_4 1
y_7_5 0
y_8_0 -2.0539125955565396e-15
y_8_1 1
y_8_2 -5.5511151231257827e-17
y_8_3 1.4988010832439613e-15
y_8_4 1.0000000000000004e+00
y_8_5 4.4408920985006262e-16
y_9_0 0
y_9_1 0
y_9_2 1
y_9_3 1
y_9_4 1.4849232954361469e-14
y_9_5 1.9428902930940239e-15
y_10_0 0
y_10_1 1.0000000000000024e+00
y_10_2 -2.6090241078691179e-15
y_10_3 1.0000000000000024e+00
y_10_4 9.9999999999999778e-01
y_10_5 2.1649348980190553e-15
y_11_0 -2.1094237467877974e-15
y_11_1 1.0000000000000020e+00
y_11_2 0
y_11_3 2.7755575615628914e-16
y_11_4 0.999999999999998
y_11_5 9.1593399531575415e-16
y_12_0 -2.7061686225238191e-16
y_12_1 1
y_12_2 1.5959455978986625e-16
y_12_3 1
y_12_4 0
y_12_5 0
y_13_0 0
y_13_1 1
y_13_2 0
y_13_3 1
y_13_4 9.9999999999998956e-01
y_13_5 1.0241807402167069e-14
y_14_0 1
y_14_1 0
y_14_2 0
y_14_3 9.9999999999999944e-01
y_14_4 -3.0669911055269949e-15
y_14_5 8.9511731360403246e-15
y_15_0 0
y_15_1 -6.1062266354383610e-16
y_15_2 1.0000000000000009e+00
y_15_3 9.9999999999999467e-01
y_15_4 0
y_15_5 7.2719608112947753e-15
x_0_1_0 0
x_0_1_1 0
x_0_1_2 0
x_0_1_3 0
x_0_1_4 0
x_0_1_5 0
x_0_2_0 0
x_0_2_1 0
x_0_2_2 0
x_0_2_3 0
x_0_2_4 0
x_0_2_5 0
x_0_3_0 0
x_0_3_1 0
x_0_3_2 0
x_0_3_3 0
x_0_3_4 0
x_0_3_5 0
x_0_4_0 0
x_0_4_1 0
x_0_4_2 0
x_0_4_3 0
x_0_4_4 0
x_0_4_5 0
x_0_5_0 0
x_0_5_1 0
x_0_5_2 0
x_0_5_3 0
x_0_5_4 0
x_0_5_5 0
x_0_6_0 0
x_0_6_1 1.0000000000000009e+00
x_0_6_2 0
x_0_6_3 -4.7184478546569153e-15
x_0_6_4 9.9999999999997735e-01
x_0_6_5 0
x_0_7_0 0
x_0_7_1 0
x_0_7_2 0
x_0_7_3 0
x_0_7_4 0
x_0_7_5 0
x_0_8_0 0
x_0_8_1 0
x_0_8_2 0
x_0_8_3 0
x_0_8_4 0
x_0_8_5 0
x_0_9_0 0
x_0_9_1 0
x_0_9_2 1.0000000000000031e+00
x_0_9_3 0
x_0_9_4 0
x_0_9_5 0
x_0_10_0 0
x_0_10_1 9.9999999999999778e-01
x_0_10_2 -3.1641356201816961e-15
x_0_10_3 -1.3357370765021415e-15
x_0_10_4 9.9999999999999867e-01
x_0_10_5 2.1649348980190553e-15
x_0_11_0 0
x_0_11_1 0
x_0_11_2 0
x_0_11_3 0
x_0_11_4 0
x_0_11_5 0
x_0_12_0 0
x_0_12_1 0
x_0_12_2 0
x_0_12_3 0
x_0_12_4 0
x_0_12_5 0
x_0_13_0 0
x_0_13_1 0
x_0_13_2 0
x_0_13_3 0
x_0_13_4 0
x_0_13_5 0
x_0_14_0 2.0000000000000004e+00
x_0_14_1 0
x_0_14_2 1.5612511283791264e-15
x_0_14_3 1.0000000000000071e+00
x_0_14_4 -4.4408920985006262e-15
x_0_14_5 2.3592239273284576e-15
x_0_15_0 -1.0408340855860843e-16
x_0_15_1 -1.0547118733938987e-15
x_0_15_2 1.0000000000000018e+00
x_0_15_3 1.0000000000000004e+00
x_0_15_4 1.4072076837123859e-14
x_0_15_5 0
x_1_2_0 0
x_1_2_1 0
x_1_2_2 0
x_1_2_3 0
x_1_2_4 0
x_1_2_5 0
x_1_3_0 0
x_1_3_1 -2.9837243786801082e-15
x_1_3_2 0
x_1_3_3 0
x_1_3_4 -6.9527716917150428e-15
x_1_3_5 0
x_1_4_0 -3.6914915568786455e-15
x_1_4_1 1.0000000000000027e+00
x_1_4_2 0
x_1_4_3 0
x_1_4_4 1
x_1_4_5 0
x_1_5_0 0
x_1_5_1 1
x_1_5_2 0
x_1_5_3 0
x_1_5_4 1
x_1_5_5 0
x_1_6_0 0
x_1_6_1 0
x_1_6_2 0
x_1_6_3 0
x_1_6_4 0
x_1_6_5 0
x_1_7_0 0
x_1_7_1 0
x_1_7_2 0
x_1_7_3 0
x_1_7_4 0
x_1_7_5 0
x_1_8_0 0
x_1_8_1 0
x_1_8_2 0
x_1_8_3 0
x_1_8_4 0
x_1_8_5 0
x_1_9_0 0
x_1_9_1 0
x_1_9_2 0
x_1_9_3 0
x_1_9_4 0
x_1_9_5 0
x_1_10_0 0
x_1_10_1 0
x_1_10_2 0
x_1_10_3 0
x_1_10_4 0
x_1_10_5 0
x_1_11_0 5.6898930012039273e-15
x_1_11_1 0
x_1_11_2 0
x_1_11_3 0
x_1_11_4 0
x_1_11_5 0
x_1_12_0 -9.0205620750793969e-17
x_1_12_1 0
x_1_12_2 0
x_1_12_3 0
x_1_12_4 6.9527716917150428e-15
x_1_12_5 0
x_1_13_0 0
x_1_13_1 0
x_1_13_2 0
x_1_13_3 0
x_1_13_4 0
x_1_13_5 0
x_1_14_0 0
x_1_14_1 0
x_1_14_2 0
x_1_14_3 0
x_1_14_4 0
x_1_14_5 0
x_1_15_0 0
x_1_15_1 0
x_1_15_2 0
x_1_15_3 0
x_1_15_4 0
x_1_15_5 0
x_2_3_0 0
x_2_3_1 0
x_2_3_2 0
x_2_3_3 0
x_2_3_4 0
x_2_3_5 0
x_2_4_0 0
x_2_4_1 0
x_2_4_2 0
x_2_4_3 0
x_2_4_4 0
x_2_4_5 0
x_2_5_0 0
x_2_5_1 0
x_2_5_2 0
x_2_5_3 0
x_2_5_4 0
x_2_5_5 0
x_2_6_0 0
x_2_6_1 0
x_2_6_2 0
x_2_6_3 0
x_2_6_4 0
x_2_6_5 0
x_2_7_0 0
x_2_7_1 9.9999999999999611e-01
x_2_7_2 0
x_2_7_3 0
x_2_7_4 1
x_2_7_5 0
x_2_8_0 0
x_2_8_1 1
x_2_8_2 0
x_2_8_3 0
x_2_8_4 1
x_2_8_5 0
x_2_9_0 0
x_2_9_1 0
x_2_9_2 0
x_2_9_3 0
x_2_9_4 0
x_2_9_5 0
x_2_10_0 0
x_2_10_1 0
x_2_10_2 0
x_2_10_3 0
x_2_10_4 0
x_2_10_5 0
x_2_11_0 0
x_2_11_1 3.8857805861880479e-15
x_2_11_2 0
x_2_11_3 0
x_2_11_4 0
x_2_11_5 0
x_2_12_0 0
x_2_12_1 0
x_2_12_2 0
x_2_12_3 0
x_2_12_4 0
x_2_12_5 0
x_2_13_0 0
x_2_13_1 0
x_2_13_2 0
x_2_13_3 0
x_2_13_4 0
x_2_13_5 0
x_2_14_0 0
x_2_14_1 0
x_2_14_2 0
x_2_14_3 0
x_2_14_4 0
x_2_14_5 0
x_2_15_0 0
x_2_15_1 0
x_2_15_2 0
x_2_15_3 0
x_2_15_4 0
x_2_15_5 0
x_3_4_0 0
x_3_4_1 2.9837243786801082e-15
x_3_4_2 0
x_3_4_3 1.0000000000000053e+00
x_3_4_4 9.9999999999998590e-01
x_3_4_5 1.3627987627273797e-14
x_3_5_0 0
x_3_5_1 0
x_3_5_2 0
x_3_5_3 0
x_3_5_4 0
x_3_5_5 0
x_3_6_0 0
x_3_6_1 0
x_3_6_2 0
x_3_6_3 0
x_3_6_4 6.3976601794024646e-15
x_3_6_5 0
x_3_7_0 0
x_3_7_1 0
x_3_7_2 0
x_3_7_3 0
x_3_7_4 0
x_3_7_5 0
x_3_8_0 0
x_3_8_1 0
x_3_8_2 0
x_3_8_3 0
x_3_8_4 0
x_3_8_5 0
x_3_9_0 0
x_3_9_1 0
x_3_9_2 0
x_3_9_3 7.4384942649885488e-15
x_3_9_4 0
x_3_9_5 0
x_3_10_0 0
x_3_10_1 0
x_3_10_2 0
x_3_10_3 0
x_3_10_4 0
x_3_10_5 0
x_3_11_0 0
x_3_11_1 0
x_3_11_2 0
x_3_11_3 0
x_3_11_4 0
x_3_11_5 0
x_3_12_0 0
x_3_12_1 1
x_3_12_2 0
x_3_12_3 0
x_3_12_4 0
x_3_12_5 0
x_3_13_0 0
x_3_13_1 1
x_3_13_2 0
x_3_13_3 1
x_3_13_4 9.9999999999998956e-01
x_3_13_5 1.0241807402167069e-14
x_3_14_0 0
x_3_14_1 0
x_3_14_2 0
x_3_14_3 0
x_3_14_4 0
x_3_14_5 0
x_3_15_0 0
x_3_15_1 0
x_3_15_2 0
x_3_15_3 0
x_3_15_4 0
x_3_15_5 0
x_4_5_0 0
x_4_5_1 0
x_4_5_2 -4.2882364326146671e-15
x_4_5_3 0
x_4_5_4 0
x_4_5_5 0
x_4_6_0 0
x_4_6_1 0
x_4_6_2 4.3576253716537394e-15
x_4_6_3 0
x_4_6_4 0
x_4_6_5 0
x_4_7_0 0
x_4_7_1 0
x_4_7_2 0
x_4_7_3 0
x_4_7_4 0
x_4_7_5 0
x_4_8_0 0
x_4_8_1 0
x_4_8_2 -5.6621374255882984e-15
x_4_8_3 0
x_4_8_4 0
x_4_8_5 0
x_4_9_0 0
x_4_9_1 0
x_4_9_2 0
x_4_9_3 0
x_4_9_4 0
x_4_9_5 0
x_4_10_0 0
x_4_10_1 0
x_4_10_2 0
x_4_10_3 0
x_4_10_4 0
x_4_10_5 0
x_4_11_0 0
x_4_11_1 0
x_4_11_2 0
x_4_11_3 0
x_4_11_4 0
x_4_11_5 0
x_4_12_0 -1.4571677198205180e-16
x_4_12_1 1
x_4_12_2 -2.6506574712925612e-15
x_4_12_3 9.9999999999999722e-01
x_4_12_4 0
x_4_12_5 0
x_4_13_0 0
x_4_13_1 0
x_4_13_2 0
x_4_13_3 0
x_4_13_4 0
x_4_13_5 0
x_4_14_0 0
x_4_14_1 0
x_4_14_2 0
x_4_14_3 0
x_4_14_4 0
x_4_14_5 0
x_4_15_0 0
x_4_15_1 0
x_4_15_2 0
x_4_15_3 0
x_4_15_4 0
x_4_15_5 0
x_5_6_0 0
x_5_6_1 0
x_5_6_2 0
x_5_6_3 0
x_5_6_4 0
x_5_6_5 0
x_5_7_0 0
x_5_7_1 0
x_5_7_2 0
x_5_7_3 0
x_5_7_4 0
x_5_7_5 0
x_5_8_0 0
x_5_8_1 0
x_5_8_2 0
x_5_8_3 0
x_5_8_4 3.1641356201816961e-15
x_5_8_5 0
x_5_9_0 0
x_5_9_1 0
x_5_9_2 0
x_5_9_3 0
x_5_9_4 0
x_5_9_5 0
x_5_10_0 0
x_5_10_1 0
x_5_10_2 0
x_5_10_3 0
x_5_10_4 0
x_5_10_5 0
x_5_11_0 0
x_5_11_1 1
x_5_11_2 0
x_5_11_3 0
x_5_11_4 9.9999999999999645e-01
x_5_11_5 0
x_5_12_0 0
x_5_12_1 0
x_5_12_2 0
x_5_12_3 0
x_5_12_4 0
x_5_12_5 0
x_5_13_0 0
x_5_13_1 0
x_5_13_2 0
x_5_13_3 0
x_5_13_4 0
x_5_13_5 0
x_5_14_0 0
x_5_14_1 0
x_5_14_2 0
x_5_14_3 0
x_5_14_4 0
x_5_14_5 0
x_5_15_0 0
x_5_15_1 0
x_5_15_2 0
x_5_15_3 0
x_5_15_4 0
x_5_15_5 0
x_6_7_0 0
x_6_7_1 0
x_6_7_2 0
x_6_7_3 0
x_6_7_4 0
x_6_7_5 0
x_6_8_0 0
x_6_8_1 0
x_6_8_2 0
x_6_8_3 0
x_6_8_4 0
x_6_8_5 0
x_6_9_0 -4.85722573273506e-17
x_6_9_1 0
x_6_9_2 0
x_6_9_3 1.0000000000000027e+00
x_6_9_4 2.4646951146678475e-14
x_6_9_5 -3.6082248300317588e-15
x_6_10_0 0
x_6_10_1 0
x_6_10_2 0
x_6_10_3 0
x_6_10_4 0
x_6_10_5 0
x_6_11_0 0
x_6_11_1 0
x_6_11_2 0
x_6_11_3 0
x_6_11_4 0
x_6_11_5 0
x_6_12_0 0
x_6_12_1 0
x_6_12_2 0
x_6_12_3 0
x_6_12_4 0
x_6_12_5 0
x_6_13_0 0
x_6_13_1 9.9999999999999767e-01
x_6_13_2 0
x_6_13_3 9.9999999999999789e-01
x_6_13_4 9.9999999999998956e-01
x_6_13_5 3.7470027081099033e-15
x_6_14_0 0
x_6_14_1 0
x_6_14_2 0
x_6_14_3 0
x_6_14_4 0
x_6_14_5 0
x_6_15_0 1.0234868508263162e-16
x_6_15_1 -3.0878077872387166e-15
x_6_15_2 0
x_6_15_3 3.1086244689504383e-15
x_6_15_4 0
x_6_15_5 -3.8857805861880479e-16
x_7_8_0 0
x_7_8_1 0
x_7_8_2 0
x_7_8_3 1.3322676295501878e-15
x_7_8_4 3.5527136788005009e-15
x_7_8_5 -4.9960036108132044e-16
x_7_9_0 1.0234868508263162e-16
x_7_9_1 0
x_7_9_2 0
x_7_9_3 0
x_7_9_4 0
x_7_9_5 0
x_7_10_0 1.0581813203458523e-16
x_7_10_1 1.0000000000000062e+00
x_7_10_2 2.0816681711721685e-16
x_7_10_3 1.0000000000000189e+00
x_7_10_4 9.9999999999999778e-01
x_7_10_5 2.1649348980190553e-15
x_7_11_0 0
x_7_11_1 0
x_7_11_2 0
x_7_11_3 0
x_7_11_4 0
x_7_11_5 0
x_7_12_0 0
x_7_12_1 0
x_7_12_2 0
x_7_12_3 1
x_7_12_4 0
x_7_12_5 0
x_7_13_0 0
x_7_13_1 0
x_7_13_2 0
x_7_13_3 0
x_7_13_4 0
x_7_13_5 0
x_7_14_0 0
x_7_14_1 0
x_7_14_2 0
x_7_14_3 -1.3322676295501878e-14
x_7_14_4 -1.9290125052862095e-15
x_7_14_5 0
x_7_15_0 0
x_7_15_1 0
x_7_15_2 0
x_7_15_3 0
x_7_15_4 0
x_7_15_5 0
x_8_9_0 0
x_8_9_1 0
x_8_9_2 0
x_8_9_3 0
x_8_9_4 0
x_8_9_5 0
x_8_10_0 0
x_8_10_1 0
x_8_10_2 0
x_8_10_3 0
x_8_10_4 0
x_8_10_5 0
x_8_11_0 -3.6637359812630166e-15
x_8_11_1 1
x_8_11_2 0
x_8_11_3 2.2204460492503131e-16
x_8_11_4 1
x_8_11_5 1.8318679906315083e-15
x_8_12_0 0
x_8_12_1 0
x_8_12_2 0
x_8_12_3 0
x_8_12_4 -6.9527716917150428e-15
x_8_12_5 0
x_8_13_0 0
x_8_13_1 0
x_8_13_2 0
x_8_13_3 0
x_8_13_4 0
x_8_13_5 0
x_8_14_0 0
x_8_14_1 0
x_8_14_2 0
x_8_14_3 0
x_8_14_4 0
x_8_14_5 0
x_8_15_0 0
x_8_15_1 0
x_8_15_2 0
x_8_15_3 0
x_8_15_4 0
x_8_15_5 0
x_9_10_0 0
x_9_10_1 0
x_9_10_2 -6.6613381477509392e-16
x_9_10_3 -1.3043385815869613e-14
x_9_10_4 4.7462034302725442e-15
x_9_10_5 0
x_9_11_0 0
x_9_11_1 0
x_9_11_2 0
x_9_11_3 0
x_9_11_4 0
x_9_11_5 0
x_9_12_0 -2.2204460492503131e-16
x_9_12_1 0
x_9_12_2 0
x_9_12_3 0
x_9_12_4 0
x_9_12_5 0
x_9_13_0 0
x_9_13_1 0
x_9_13_2 0
x_9_13_3 1.7763568394002505e-15
x_9_13_4 0
x_9_13_5 5.9674487573602164e-15
x_9_14_0 0
x_9_14_1 0
x_9_14_2 0
x_9_14_3 0
x_9_14_4 0
x_9_14_5 0
x_9_15_0 0
x_9_15_1 0
x_9_15_2 9.9999999999999944e-01
x_9_15_3 1
x_9_15_4 0
x_9_15_5 9.2703622556200571e-15
x_10_11_0 0
x_10_11_1 0
x_10_11_2 0
x_10_11_3 0
x_10_11_4 0
x_10_11_5 0
x_10_12_0 0
x_10_12_1 0
x_10_12_2 0
x_10_12_3 0
x_10_12_4 0
x_10_12_5 0
x_10_13_0 0
x_10_13_1 0
x_10_13_2 0
x_10_13_3 0
x_10_13_4 0
x_10_13_5 0
x_10_14_0 -1.0408340855860843e-16
x_10_14_1 0
x_10_14_2 -1.5334955527634975e-15
x_10_14_3 1.0000000000000049e+00
x_10_14_4 0
x_10_14_5 0
x_10_15_0 0
x_10_15_1 0
x_10_15_2 0
x_10_15_3 0
x_10_15_4 -1.4960255256823984e-14
x_10_15_5 0
x_11_12_0 0
x_11_12_1 0
x_11_12_2 0
x_11_12_3 2.7755575615628914e-16
x_11_12_4 0
x_11_12_5 0
x_11_13_0 0
x_11_13_1 0
x_11_13_2 0
x_11_13_3 0
x_11_13_4 0
x_11_13_5 0
x_11_14_0 0
x_11_14_1 0
x_11_14_2 0
x_11_14_3 0
x_11_14_4 0
x_11_14_5 0
x_11_15_0 0
x_11_15_1 0
x_11_15_2 0
x_11_15_3 0
x_11_15_4 0
x_11_15_5 0
x_12_13_0 0
x_12_13_1 0
x_12_13_2 0
x_12_13_3 0
x_12_13_4 0
x_12_13_5 0
x_12_14_0 0
x_12_14_1 0
x_12_14_2 0
x_12_14_3 0
x_12_14_4 0
x_12_14_5 0
x_12_15_0 0
x_12_15_1 0
x_12_15_2 0
x_12_15_3 0
x_12_15_4 0
x_12_15_5 0
x_13_14_0 0
x_13_14_1 0
x_13_14_2 0
x_13_14_3 0
x_13_14_4 0
x_13_14_5 0
x_13_15_0 0
x_13_15_1 2.4008572907519010e-15
x_13_15_2 0
x_13_15_3 0
x_13_15_4 0
x_13_15_5 0
x_14_15_0 0
x_14_15_1 0
x_14_15_2 0
x_14_15_3 0
x_14_15_4 0
x_14_15_5 0
